
Gurobi 10.0.1 (linux64) logging started Mon Apr  1 02:41:12 2024

Set parameter LogFile to value "/data/optimi/optimi/kombadon/drings/SBahn/s-bahn-data/scripts/DeniseMA/processed/BGAS_BKW/RINS/BGAS_BKW_202403312232_random0_0.9.log"
Gurobi Optimizer version 10.0.1 build v10.0.1rc0 (linux64)

CPU model: Intel(R) Xeon(R) CPU E3-1270 v6 @ 3.80GHz, instruction set [SSE2|AVX|AVX2]
Thread count: 4 physical cores, 8 logical processors, using up to 8 threads

Optimize a model with 1967 rows, 1012 columns and 7145 nonzeros
Model fingerprint: 0x631cd161
Variable types: 411 continuous, 601 integer (170 binary)
Coefficient statistics:
  Matrix range     [1e+00, 4e+02]
  Objective range  [1e+00, 4e+02]
  Bounds range     [1e+00, 2e+02]
  RHS range        [1e+00, 5e+03]

User MIP start did not produce a new incumbent solution
User MIP start violates constraint objective_cutoff by 49.140000000

Presolve removed 1157 rows and 478 columns
Presolve time: 0.01s
Presolved: 810 rows, 534 columns, 3288 nonzeros
Variable types: 202 continuous, 332 integer (332 binary)

Root relaxation: objective 4.288000e+03, 304 iterations, 0.00 seconds (0.00 work units)
Another try with MIP start

    Nodes    |    Current Node    |     Objective Bounds      |     Work
 Expl Unexpl |  Obj  Depth IntInf | Incumbent    BestBd   Gap | It/Node Time

     0     0 4288.00000    0   22          - 4288.00000      -     -    0s
     0     0 4344.00000    0   45          - 4344.00000      -     -    0s
     0     0 4344.00000    0   52          - 4344.00000      -     -    0s
     0     0 4344.40650    0   42          - 4344.40650      -     -    0s
     0     0 4344.40650    0   41          - 4344.40650      -     -    0s
     0     0 4346.22222    0   59          - 4346.22222      -     -    0s
     0     0 4346.22222    0   59          - 4346.22222      -     -    0s
     0     0 4349.13041    0   66          - 4349.13041      -     -    0s
     0     0 4349.13041    0   74          - 4349.13041      -     -    0s
     0     0 4354.00000    0   71          - 4354.00000      -     -    0s
     0     0 4354.00000    0   70          - 4354.00000      -     -    0s
     0     0 4354.00000    0   68          - 4354.00000      -     -    0s
     0     0 4354.00000    0   52          - 4354.00000      -     -    0s
     0     2 4354.00000    0   42          - 4354.00000      -     -    0s
 33810  6468 4838.00000   28   52          - 4799.00000      -   6.7    5s

Cutting planes:
  Learned: 7
  Gomory: 34
  Cover: 5
  Implied bound: 2
  MIR: 20
  StrongCG: 2
  Flow cover: 46
  Zero half: 2
  RLT: 4
  Relax-and-lift: 3

Explored 37223 nodes (276068 simplex iterations) in 7.42 seconds (3.99 work units)
Thread count was 8 (of 8 available processors)

Solution count 0

Model is infeasible
Best objective -, best bound -, gap -

User-callback calls 78653, time in user-callback 0.34 sec
